
  32    4
  10   10   10   10

   0   0   0   0   0   2 2 11 
   3   1   0   1   1   1 3 
   8   7   1   0   4   3 6 5 4 
   8   8   0   4   4   4 31 12 10 8 
   8   0   5   1   3   2 12 7 
   9   4   8   5   0   2 9 8 
   5   5   5   0   5   2 10 8 
   6   4   2   4   0   2 17 13 
   4   2   4   3   0   1 10 
   4   4   4   3   0   2 16 15 
   6   1   5   4   0   2 16 15 
   5   2   2   0   4   2 24 15 
   3   0   3   1   7   1 14 
   6   1   3   4   0   2 30 16 
   1   2   5   5   0   1 17 
   3   5   3   0   2   2 24 18 
   2   4   0   4   3   2 30 18 
   4   5   0   7   6   2 22 19 
   9   3   5   6   0   2 29 20 
   1   4   0   1   3   2 28 21 
   3   3   5   0   6   2 27 23 
   7   5   0   4   2   2 27 26 
   9   5   4   0   3   1 25 
   8   0   5  10   3   1 25 
   8   4   0   2   2   1 26 
   5   0   4   4   2   1 32
   4   4   2   0   6   1 32
   7   6   0   4   7   1 32
   9   5   3   4   0   1 32
  10   6   0   7   4   1 32
   1   4   6   0   7   1 32
   0   0   0   0   0   0 
